
Log started (V12.8.0.0) Thu Aug 30 11:30:15 2018

New value for time limit in seconds: 500
CPXPARAM_TimeLimit                               500
CPXPARAM_Emphasis_Numerical                      1
CPXPARAM_Parallel                                -1
CPXPARAM_Benders_Strategy                        3
CPXPARAM_MIP_Tolerances_Integrality              9.9999999999999995e-08
CPXPARAM_MIP_Pool_AbsGap                         0
Tried aggregator 4 times.
MIP Presolve eliminated 10058 rows and 4598 columns.
Aggregator did 1845 substitutions.
Reduced MIP has 4281 rows, 4598 columns, and 17047 nonzeros.
Reduced MIP has 22 binaries, 0 generals, 0 SOSs, and 0 indicators.
Presolve time = 0.02 sec. (23.53 ticks)
Found incumbent of value -65.028944 after 0.04 sec. (43.21 ticks)
Tried aggregator 1 time.
Reduced MIP has 4281 rows, 4598 columns, and 17047 nonzeros.
Reduced MIP has 22 binaries, 0 generals, 0 SOSs, and 0 indicators.
Presolve time = 0.00 sec. (4.59 ticks)

        Nodes                                         Cuts/
   Node  Left     Objective  IInf  Best Integer    Best Bound    ItCnt     Gap

      0     0        0.0000                       Benders: 10        0         
      0     0        0.0000                        Benders: 4        1         
      0     0        0.0000                        Benders: 4        3         
      0     0        0.0000                        Benders: 4        4         
      0     0        0.0000                        Benders: 4        5         
      0     0        0.0000                       Benders: 10        6         
      0     0        0.0000                        Benders: 1        8         
      0     0        0.0000                        Benders: 1       10         
      0     0        0.0000                        Benders: 1       11         
      0     0        0.0000                        Benders: 1       12         
      0     0        0.0000                        Benders: 1       14         
      0     0        0.0000                        Benders: 1       16         
      0     0        0.0000                            0.0000       17         
Tried aggregator 1 time.
MIP Presolve eliminated 2 rows and 0 columns.
MIP Presolve modified 566 coefficients.
Reduced MIP has 41 rows, 32 columns, and 375 nonzeros.
Reduced MIP has 22 binaries, 0 generals, 0 SOSs, and 0 indicators.
Presolve time = 0.00 sec. (0.12 ticks)
Probing time = 0.00 sec. (0.02 ticks)
Tried aggregator 1 time.
Reduced MIP has 41 rows, 32 columns, and 375 nonzeros.
Reduced MIP has 22 binaries, 0 generals, 0 SOSs, and 0 indicators.
Presolve time = 0.00 sec. (0.09 ticks)
Probing time = 0.00 sec. (0.02 ticks)
MIP emphasis: balance optimality and feasibility.
MIP search method: dynamic search.
Parallel mode: opportunistic, using up to 8 threads.
Root relaxation solution time = 0.00 sec. (0.09 ticks)
*     0+    0                          -65.0289       -0.0000           100.00%
      0     0        0.0000     6      -65.0289       -0.0000       36  100.00%
*     0+    0                          -57.0748       -0.0000           100.00%
      0     0        0.0000     6      -57.0748      Fract: 4       37  100.00%
      0     0        0.0000     6      -57.0748      Fract: 4       38  100.00%
      0     0        0.0000     8      -57.0748    Benders: 1       39  100.00%

Repeating presolve.
Tried aggregator 1 time.
Reduced MIP has 41 rows, 32 columns, and 375 nonzeros.
Reduced MIP has 22 binaries, 0 generals, 0 SOSs, and 0 indicators.
Presolve time = 0.00 sec. (0.10 ticks)
Probing time = 0.00 sec. (0.02 ticks)
Tried aggregator 1 time.
Reduced MIP has 41 rows, 32 columns, and 375 nonzeros.
Reduced MIP has 22 binaries, 0 generals, 0 SOSs, and 0 indicators.
Presolve time = 0.00 sec. (0.10 ticks)
Represolve time = 0.00 sec. (0.95 ticks)
Probing time = 0.00 sec. (0.02 ticks)
MIP emphasis: balance optimality and feasibility.
MIP search method: dynamic search.
Parallel mode: opportunistic, using up to 8 threads.
Root relaxation solution time = 0.00 sec. (0.25 ticks)
*     0+    0                          -57.0748       -0.0000           100.00%
      0     0        0.0000     7      -57.0748       -0.0000       76  100.00%
*     0+    0                          -56.7331       -0.0000           100.00%
      0     0        0.0000     8      -56.7331   LiftProj: 1       77  100.00%
      0     0        0.0000     7      -56.7331      Fract: 3       79  100.00%
*     0+    0                          -40.1678       -0.0000           100.00%
      0     2        0.0000     9      -40.1678      Cuts: 98       79  100.00%
Elapsed time = 1.02 sec. (924.43 ticks, tree = 0.01 MB, solutions = 1)
    251    47      -38.5456     5      -40.1678       -7.0000      532   82.57%
*   488+  196                          -39.7743      -11.2000            71.84%
    629   257      -39.4801     8      -39.7743      -16.8000     4801   57.76%
   1415   457      -37.1189     7      -39.7743      -28.0000    10052   29.60%
   2631   407        cutoff            -39.7743      -35.6000    19625   10.50%

Benders cuts applied:  1146
Flow cuts applied:  7
Mixed integer rounding cuts applied:  3
Gomory fractional cuts applied:  6

Root node processing (before b&c):
  Real time             =    0.91 sec. (923.89 ticks)
Parallel b&c, 8 threads:
  Real time             =    1.43 sec. (1032.16 ticks)
  Sync time (average)   =    0.05 sec.
  Wait time (average)   =    0.01 sec.
                          ------------
Total (root+branch&cut) =    2.34 sec. (1956.05 ticks)

Solution pool: 1 solution saved.

MIP - Integer optimal solution:  Objective = -3.9774320855e+01
Solution time =    2.34 sec.  Iterations = 22290  Nodes = 3064 (1)
Deterministic time = 1956.90 ticks  (835.60 ticks/sec)


Solution pool written to file 'lsgcp_a6_b0_n2.sol'.
Current MIP best bound = -3.9774320855e+01 (gap = -0, 0.00%)
